10 1 1 8 0 9 40
10 1 2 10 10 11 50
10 1 3 14 0 15 35
10 1 4 15 55 17 30
10 1 5 18 30 21 50
10 2 1 8 0 9 40
10 2 2 10 10 11 50
10 2 3 14 0 15 35
10 2 4 15 55 17 30
10 2 5 18 30 21 50
10 3 1 8 0 9 40
10 3 2 10 10 11 50
10 3 3 14 0 15 35
10 3 4 15 55 17 30
10 3 5 18 30 21 50
10 4 1 8 0 9 40
10 4 2 10 10 11 50
10 4 3 14 0 15 35
10 4 4 15 55 17 30
10 4 5 18 30 21 50
10 5 1 8 0 9 40
10 5 2 10 10 11 50
10 5 3 14 0 15 35
10 5 4 15 55 17 30
10 5 5 18 30 21 50
10 6 1 8 0 9 40
10 6 2 10 10 11 50
10 6 3 14 0 15 35
10 6 4 15 55 17 30
10 6 5 18 30 21 50
10 7 1 8 0 9 40
10 7 2 10 10 11 50
10 7 3 14 0 15 35
10 7 4 15 55 17 30
10 7 5 18 30 21 50
10 8 1 8 0 9 40
10 8 2 10 10 11 50
10 8 3 14 0 15 35
10 8 4 15 55 17 30
10 8 5 18 30 21 50
10 9 1 8 0 9 40
10 9 2 10 10 11 50
10 9 3 14 0 15 35
10 9 4 15 55 17 30
10 9 5 18 30 21 50
10 10 1 8 0 9 40
10 10 2 10 10 11 50
10 10 3 14 0 15 35
10 10 4 15 55 17 30
10 10 5 18 30 21 50
10 11 1 8 0 9 40
10 11 2 10 10 11 50
10 11 3 14 0 15 35
10 11 4 15 55 17 30
10 11 5 18 30 21 50
10 12 1 8 0 9 40
10 12 2 10 10 11 50
10 12 3 14 0 15 35
10 12 4 15 55 17 30
10 12 5 18 30 21 50
10 13 1 8 0 9 40
10 13 2 10 10 11 50
10 13 3 14 0 15 35
10 13 4 15 55 17 30
10 13 5 18 30 21 50
10 14 1 8 0 9 40
10 14 2 10 10 11 50
10 14 3 14 0 15 35
10 14 4 15 55 17 30
10 14 5 18 30 21 50
10 15 1 8 0 9 40
10 15 2 10 10 11 50
10 15 3 14 0 15 35
10 15 4 15 55 17 30
10 15 5 18 30 21 50
10 16 1 8 0 9 40
10 16 2 10 10 11 50
10 16 3 14 0 15 35
10 16 4 15 55 17 30
10 16 5 18 30 21 50
10 17 1 8 0 9 40
10 17 2 10 10 11 50
10 17 3 14 0 15 35
10 17 4 15 55 17 30
10 17 5 18 30 21 50
10 18 1 8 0 9 40
10 18 2 10 10 11 50
10 18 3 14 0 15 35
10 18 4 15 55 17 30
10 18 5 18 30 21 50
10 19 1 8 0 9 40
10 19 2 10 10 11 50
10 19 3 14 0 15 35
10 19 4 15 55 17 30
10 19 5 18 30 21 50
10 20 1 8 0 9 40
10 20 2 10 10 11 50
10 20 3 14 0 15 35
10 20 4 15 55 17 30
10 20 5 18 30 21 50
10 21 1 8 0 9 40
10 21 2 10 10 11 50
10 21 3 14 0 15 35
10 21 4 15 55 17 30
10 21 5 18 30 21 50
10 22 1 8 0 9 40
10 22 2 10 10 11 50
10 22 3 14 0 15 35
10 22 4 15 55 17 30
10 22 5 18 30 21 50
10 23 1 8 0 9 40
10 23 2 10 10 11 50
10 23 3 14 0 15 35
10 23 4 15 55 17 30
10 23 5 18 30 21 50
10 24 1 8 0 9 40
10 24 2 10 10 11 50
10 24 3 14 0 15 35
10 24 4 15 55 17 30
10 24 5 18 30 21 50
10 25 1 8 0 9 40
10 25 2 10 10 11 50
10 25 3 14 0 15 35
10 25 4 15 55 17 30
10 25 5 18 30 21 50
10 26 1 8 0 9 40
10 26 2 10 10 11 50
10 26 3 14 0 15 35
10 26 4 15 55 17 30
10 26 5 18 30 21 50
10 27 1 8 0 9 40
10 27 2 10 10 11 50
10 27 3 14 0 15 35
10 27 4 15 55 17 30
10 27 5 18 30 21 50
10 28 1 8 0 9 40
10 28 2 10 10 11 50
10 28 3 14 0 15 35
10 28 4 15 55 17 30
10 28 5 18 30 21 50
10 29 1 8 0 9 40
10 29 2 10 10 11 50
10 29 3 14 0 15 35
10 29 4 15 55 17 30
10 29 5 18 30 21 50
10 30 1 8 0 9 40
10 30 2 10 10 11 50
10 30 3 14 0 15 35
10 30 4 15 55 17 30
10 30 5 18 30 21 50
10 31 1 8 0 9 40
10 31 2 10 10 11 50
10 31 3 14 0 15 35
10 31 4 15 55 17 30
10 31 5 18 30 21 50
11 1 1 8 0 9 40
11 1 2 10 10 11 50
11 1 3 14 0 15 35
11 1 4 15 55 17 30
11 1 5 18 30 21 50
11 2 1 8 0 9 40
11 2 2 10 10 11 50
11 2 3 14 0 15 35
11 2 4 15 55 17 30
11 2 5 18 30 21 50
11 3 1 8 0 9 40
11 3 2 10 10 11 50
11 3 3 14 0 15 35
11 3 4 15 55 17 30
11 3 5 18 30 21 50
11 4 1 8 0 9 40
11 4 2 10 10 11 50
11 4 3 14 0 15 35
11 4 4 15 55 17 30
11 4 5 18 30 21 50
11 5 1 8 0 9 40
11 5 2 10 10 11 50
11 5 3 14 0 15 35
11 5 4 15 55 17 30
11 5 5 18 30 21 50
11 6 1 8 0 9 40
11 6 2 10 10 11 50
11 6 3 14 0 15 35
11 6 4 15 55 17 30
11 6 5 18 30 21 50
11 7 1 8 0 9 40
11 7 2 10 10 11 50
11 7 3 14 0 15 35
11 7 4 15 55 17 30
11 7 5 18 30 21 50
11 8 1 8 0 9 40
11 8 2 10 10 11 50
11 8 3 14 0 15 35
11 8 4 15 55 17 30
11 8 5 18 30 21 50
11 9 1 8 0 9 40
11 9 2 10 10 11 50
11 9 3 14 0 15 35
11 9 4 15 55 17 30
11 9 5 18 30 21 50
11 10 1 8 0 9 40
11 10 2 10 10 11 50
11 10 3 14 0 15 35
11 10 4 15 55 17 30
11 10 5 18 30 21 50
11 11 1 8 0 9 40
11 11 2 10 10 11 50
11 11 3 14 0 15 35
11 11 4 15 55 17 30
11 11 5 18 30 21 50
11 12 1 8 0 9 40
11 12 2 10 10 11 50
11 12 3 14 0 15 35
11 12 4 15 55 17 30
11 12 5 18 30 21 50
11 13 1 8 0 9 40
11 13 2 10 10 11 50
11 13 3 14 0 15 35
11 13 4 15 55 17 30
11 13 5 18 30 21 50
11 14 1 8 0 9 40
11 14 2 10 10 11 50
11 14 3 14 0 15 35
11 14 4 15 55 17 30
11 14 5 18 30 21 50
11 15 1 8 0 9 40
11 15 2 10 10 11 50
11 15 3 14 0 15 35
11 15 4 15 55 17 30
11 15 5 18 30 21 50
11 16 1 8 0 9 40
11 16 2 10 10 11 50
11 16 3 14 0 15 35
11 16 4 15 55 17 30
11 16 5 18 30 21 50
11 17 1 8 0 9 40
11 17 2 10 10 11 50
11 17 3 14 0 15 35
11 17 4 15 55 17 30
11 17 5 18 30 21 50
11 18 1 8 0 9 40
11 18 2 10 10 11 50
11 18 3 14 0 15 35
11 18 4 15 55 17 30
11 18 5 18 30 21 50
11 19 1 8 0 9 40
11 19 2 10 10 11 50
11 19 3 14 0 15 35
11 19 4 15 55 17 30
11 19 5 18 30 21 50
11 20 1 8 0 9 40
11 20 2 10 10 11 50
11 20 3 14 0 15 35
11 20 4 15 55 17 30
11 20 5 18 30 21 50
11 21 1 8 0 9 40
11 21 2 10 10 11 50
11 21 3 14 0 15 35
11 21 4 15 55 17 30
11 21 5 18 30 21 50
11 22 1 8 0 9 40
11 22 2 10 10 11 50
11 22 3 14 0 15 35
11 22 4 15 55 17 30
11 22 5 18 30 21 50
11 23 1 8 0 9 40
11 23 2 10 10 11 50
11 23 3 14 0 15 35
11 23 4 15 55 17 30
11 23 5 18 30 21 50
11 24 1 8 0 9 40
11 24 2 10 10 11 50
11 24 3 14 0 15 35
11 24 4 15 55 17 30
11 24 5 18 30 21 50
11 25 1 8 0 9 40
11 25 2 10 10 11 50
11 25 3 14 0 15 35
11 25 4 15 55 17 30
11 25 5 18 30 21 50
11 26 1 8 0 9 40
11 26 2 10 10 11 50
11 26 3 14 0 15 35
11 26 4 15 55 17 30
11 26 5 18 30 21 50
11 27 1 8 0 9 40
11 27 2 10 10 11 50
11 27 3 14 0 15 35
11 27 4 15 55 17 30
11 27 5 18 30 21 50
11 28 1 8 0 9 40
11 28 2 10 10 11 50
11 28 3 14 0 15 35
11 28 4 15 55 17 30
11 28 5 18 30 21 50
11 29 1 8 0 9 40
11 29 2 10 10 11 50
11 29 3 14 0 15 35
11 29 4 15 55 17 30
11 29 5 18 30 21 50
11 30 1 8 0 9 40
11 30 2 10 10 11 50
11 30 3 14 0 15 35
11 30 4 15 55 17 30
11 30 5 18 30 21 50
12 1 1 8 0 9 40
12 1 2 10 10 11 50
12 1 3 14 0 15 35
12 1 4 15 55 17 30
12 1 5 18 30 21 50
12 2 1 8 0 9 40
12 2 2 10 10 11 50
12 2 3 14 0 15 35
12 2 4 15 55 17 30
12 2 5 18 30 21 50
12 3 1 8 0 9 40
12 3 2 10 10 11 50
12 3 3 14 0 15 35
12 3 4 15 55 17 30
12 3 5 18 30 21 50
12 4 1 8 0 9 40
12 4 2 10 10 11 50
12 4 3 14 0 15 35
12 4 4 15 55 17 30
12 4 5 18 30 21 50
12 5 1 8 0 9 40
12 5 2 10 10 11 50
12 5 3 14 0 15 35
12 5 4 15 55 17 30
12 5 5 18 30 21 50
12 6 1 8 0 9 40
12 6 2 10 10 11 50
12 6 3 14 0 15 35
12 6 4 15 55 17 30
12 6 5 18 30 21 50
12 7 1 8 0 9 40
12 7 2 10 10 11 50
12 7 3 14 0 15 35
12 7 4 15 55 17 30
12 7 5 18 30 21 50
12 8 1 8 0 9 40
12 8 2 10 10 11 50
12 8 3 14 0 15 35
12 8 4 15 55 17 30
12 8 5 18 30 21 50
12 9 1 8 0 9 40
12 9 2 10 10 11 50
12 9 3 14 0 15 35
12 9 4 15 55 17 30
12 9 5 18 30 21 50
12 10 1 8 0 9 40
12 10 2 10 10 11 50
12 10 3 14 0 15 35
12 10 4 15 55 17 30
12 10 5 18 30 21 50
12 11 1 8 0 9 40
12 11 2 10 10 11 50
12 11 3 14 0 15 35
12 11 4 15 55 17 30
12 11 5 18 30 21 50
12 12 1 8 0 9 40
12 12 2 10 10 11 50
12 12 3 14 0 15 35
12 12 4 15 55 17 30
12 12 5 18 30 21 50
12 13 1 8 0 9 40
12 13 2 10 10 11 50
12 13 3 14 0 15 35
12 13 4 15 55 17 30
12 13 5 18 30 21 50
12 14 1 8 0 9 40
12 14 2 10 10 11 50
12 14 3 14 0 15 35
12 14 4 15 55 17 30
12 14 5 18 30 21 50
12 15 1 8 0 9 40
12 15 2 10 10 11 50
12 15 3 14 0 15 35
12 15 4 15 55 17 30
12 15 5 18 30 21 50
12 16 1 8 0 9 40
12 16 2 10 10 11 50
12 16 3 14 0 15 35
12 16 4 15 55 17 30
12 16 5 18 30 21 50
12 17 1 8 0 9 40
12 17 2 10 10 11 50
12 17 3 14 0 15 35
12 17 4 15 55 17 30
12 17 5 18 30 21 50
12 18 1 8 0 9 40
12 18 2 10 10 11 50
12 18 3 14 0 15 35
12 18 4 15 55 17 30
12 18 5 18 30 21 50
12 19 1 8 0 9 40
12 19 2 10 10 11 50
12 19 3 14 0 15 35
12 19 4 15 55 17 30
12 19 5 18 30 21 50
12 20 1 8 0 9 40
12 20 2 10 10 11 50
12 20 3 14 0 15 35
12 20 4 15 55 17 30
12 20 5 18 30 21 50
12 21 1 8 0 9 40
12 21 2 10 10 11 50
12 21 3 14 0 15 35
12 21 4 15 55 17 30
12 21 5 18 30 21 50
12 22 1 8 0 9 40
12 22 2 10 10 11 50
12 22 3 14 0 15 35
12 22 4 15 55 17 30
12 22 5 18 30 21 50
12 23 1 8 0 9 40
12 23 2 10 10 11 50
12 23 3 14 0 15 35
12 23 4 15 55 17 30
12 23 5 18 30 21 50
12 24 1 8 0 9 40
12 24 2 10 10 11 50
12 24 3 14 0 15 35
12 24 4 15 55 17 30
12 24 5 18 30 21 50
12 25 1 8 0 9 40
12 25 2 10 10 11 50
12 25 3 14 0 15 35
12 25 4 15 55 17 30
12 25 5 18 30 21 50
12 26 1 8 0 9 40
12 26 2 10 10 11 50
12 26 3 14 0 15 35
12 26 4 15 55 17 30
12 26 5 18 30 21 50
12 27 1 8 0 9 40
12 27 2 10 10 11 50
12 27 3 14 0 15 35
12 27 4 15 55 17 30
12 27 5 18 30 21 50
12 28 1 8 0 9 40
12 28 2 10 10 11 50
12 28 3 14 0 15 35
12 28 4 15 55 17 30
12 28 5 18 30 21 50
12 29 1 8 0 9 40
12 29 2 10 10 11 50
12 29 3 14 0 15 35
12 29 4 15 55 17 30
12 29 5 18 30 21 50
12 30 1 8 0 9 40
12 30 2 10 10 11 50
12 30 3 14 0 15 35
12 30 4 15 55 17 30
12 30 5 18 30 21 50
12 31 1 8 0 9 40
12 31 2 10 10 11 50
12 31 3 14 0 15 35
12 31 4 15 55 17 30
12 31 5 18 30 21 50
1 1 1 8 0 9 40
1 1 2 10 10 11 50
1 1 3 14 0 15 35
1 1 4 15 55 17 30
1 1 5 18 30 21 50
1 2 1 8 0 9 40
1 2 2 10 10 11 50
1 2 3 14 0 15 35
1 2 4 15 55 17 30
1 2 5 18 30 21 50
1 3 1 8 0 9 40
1 3 2 10 10 11 50
1 3 3 14 0 15 35
1 3 4 15 55 17 30
1 3 5 18 30 21 50
1 4 1 8 0 9 40
1 4 2 10 10 11 50
1 4 3 14 0 15 35
1 4 4 15 55 17 30
1 4 5 18 30 21 50
1 5 1 8 0 9 40
1 5 2 10 10 11 50
1 5 3 14 0 15 35
1 5 4 15 55 17 30
1 5 5 18 30 21 50
1 6 1 8 0 9 40
1 6 2 10 10 11 50
1 6 3 14 0 15 35
1 6 4 15 55 17 30
1 6 5 18 30 21 50
1 7 1 8 0 9 40
1 7 2 10 10 11 50
1 7 3 14 0 15 35
1 7 4 15 55 17 30
1 7 5 18 30 21 50
1 8 1 8 0 9 40
1 8 2 10 10 11 50
1 8 3 14 0 15 35
1 8 4 15 55 17 30
1 8 5 18 30 21 50
1 9 1 8 0 9 40
1 9 2 10 10 11 50
1 9 3 14 0 15 35
1 9 4 15 55 17 30
1 9 5 18 30 21 50
1 10 1 8 0 9 40
1 10 2 10 10 11 50
1 10 3 14 0 15 35
1 10 4 15 55 17 30
1 10 5 18 30 21 50
1 11 1 8 0 9 40
1 11 2 10 10 11 50
1 11 3 14 0 15 35
1 11 4 15 55 17 30
1 11 5 18 30 21 50
1 12 1 8 0 9 40
1 12 2 10 10 11 50
1 12 3 14 0 15 35
1 12 4 15 55 17 30
1 12 5 18 30 21 50
1 13 1 8 0 9 40
1 13 2 10 10 11 50
1 13 3 14 0 15 35
1 13 4 15 55 17 30
1 13 5 18 30 21 50
1 14 1 8 0 9 40
1 14 2 10 10 11 50
1 14 3 14 0 15 35
1 14 4 15 55 17 30
1 14 5 18 30 21 50
1 15 1 8 0 9 40
1 15 2 10 10 11 50
1 15 3 14 0 15 35
1 15 4 15 55 17 30
1 15 5 18 30 21 50
1 16 1 8 0 9 40
1 16 2 10 10 11 50
1 16 3 14 0 15 35
1 16 4 15 55 17 30
1 16 5 18 30 21 50
1 17 1 8 0 9 40
1 17 2 10 10 11 50
1 17 3 14 0 15 35
1 17 4 15 55 17 30
1 17 5 18 30 21 50
1 18 1 8 0 9 40
1 18 2 10 10 11 50
1 18 3 14 0 15 35
1 18 4 15 55 17 30
1 18 5 18 30 21 50
1 19 1 8 0 9 40
1 19 2 10 10 11 50
1 19 3 14 0 15 35
1 19 4 15 55 17 30
1 19 5 18 30 21 50
1 20 1 8 0 9 40
1 20 2 10 10 11 50
1 20 3 14 0 15 35
1 20 4 15 55 17 30
1 20 5 18 30 21 50
1 21 1 8 0 9 40
1 21 2 10 10 11 50
1 21 3 14 0 15 35
1 21 4 15 55 17 30
1 21 5 18 30 21 50
1 22 1 8 0 9 40
1 22 2 10 10 11 50
1 22 3 14 0 15 35
1 22 4 15 55 17 30
1 22 5 18 30 21 50
1 23 1 8 0 9 40
1 23 2 10 10 11 50
1 23 3 14 0 15 35
1 23 4 15 55 17 30
1 23 5 18 30 21 50
1 24 1 8 0 9 40
1 24 2 10 10 11 50
1 24 3 14 0 15 35
1 24 4 15 55 17 30
1 24 5 18 30 21 50
1 25 1 8 0 9 40
1 25 2 10 10 11 50
1 25 3 14 0 15 35
1 25 4 15 55 17 30
1 25 5 18 30 21 50
1 26 1 8 0 9 40
1 26 2 10 10 11 50
1 26 3 14 0 15 35
1 26 4 15 55 17 30
1 26 5 18 30 21 50
1 27 1 8 0 9 40
1 27 2 10 10 11 50
1 27 3 14 0 15 35
1 27 4 15 55 17 30
1 27 5 18 30 21 50
1 28 1 8 0 9 40
1 28 2 10 10 11 50
1 28 3 14 0 15 35
1 28 4 15 55 17 30
1 28 5 18 30 21 50
1 29 1 8 0 9 40
1 29 2 10 10 11 50
1 29 3 14 0 15 35
1 29 4 15 55 17 30
1 29 5 18 30 21 50
1 30 1 8 0 9 40
1 30 2 10 10 11 50
1 30 3 14 0 15 35
1 30 4 15 55 17 30
1 30 5 18 30 21 50
1 31 1 8 0 9 40
1 31 2 10 10 11 50
1 31 3 14 0 15 35
1 31 4 15 55 17 30
1 31 5 18 30 21 50
2 1 1 8 0 9 40
2 1 2 10 10 11 50
2 1 3 14 0 15 35
2 1 4 15 55 17 30
2 1 5 18 30 21 50
2 2 1 8 0 9 40
2 2 2 10 10 11 50
2 2 3 14 0 15 35
2 2 4 15 55 17 30
2 2 5 18 30 21 50
2 3 1 8 0 9 40
2 3 2 10 10 11 50
2 3 3 14 0 15 35
2 3 4 15 55 17 30
2 3 5 18 30 21 50
2 4 1 8 0 9 40
2 4 2 10 10 11 50
2 4 3 14 0 15 35
2 4 4 15 55 17 30
2 4 5 18 30 21 50
2 5 1 8 0 9 40
2 5 2 10 10 11 50
2 5 3 14 0 15 35
2 5 4 15 55 17 30
2 5 5 18 30 21 50
2 6 1 8 0 9 40
2 6 2 10 10 11 50
2 6 3 14 0 15 35
2 6 4 15 55 17 30
2 6 5 18 30 21 50
2 7 1 8 0 9 40
2 7 2 10 10 11 50
2 7 3 14 0 15 35
2 7 4 15 55 17 30
2 7 5 18 30 21 50
2 8 1 8 0 9 40
2 8 2 10 10 11 50
2 8 3 14 0 15 35
2 8 4 15 55 17 30
2 8 5 18 30 21 50
2 9 1 8 0 9 40
2 9 2 10 10 11 50
2 9 3 14 0 15 35
2 9 4 15 55 17 30
2 9 5 18 30 21 50
2 10 1 8 0 9 40
2 10 2 10 10 11 50
2 10 3 14 0 15 35
2 10 4 15 55 17 30
2 10 5 18 30 21 50
2 11 1 8 0 9 40
2 11 2 10 10 11 50
2 11 3 14 0 15 35
2 11 4 15 55 17 30
2 11 5 18 30 21 50
2 12 1 8 0 9 40
2 12 2 10 10 11 50
2 12 3 14 0 15 35
2 12 4 15 55 17 30
2 12 5 18 30 21 50
2 13 1 8 0 9 40
2 13 2 10 10 11 50
2 13 3 14 0 15 35
2 13 4 15 55 17 30
2 13 5 18 30 21 50
2 14 1 8 0 9 40
2 14 2 10 10 11 50
2 14 3 14 0 15 35
2 14 4 15 55 17 30
2 14 5 18 30 21 50
2 15 1 8 0 9 40
2 15 2 10 10 11 50
2 15 3 14 0 15 35
2 15 4 15 55 17 30
2 15 5 18 30 21 50
2 16 1 8 0 9 40
2 16 2 10 10 11 50
2 16 3 14 0 15 35
2 16 4 15 55 17 30
2 16 5 18 30 21 50
2 17 1 8 0 9 40
2 17 2 10 10 11 50
2 17 3 14 0 15 35
2 17 4 15 55 17 30
2 17 5 18 30 21 50
2 18 1 8 0 9 40
2 18 2 10 10 11 50
2 18 3 14 0 15 35
2 18 4 15 55 17 30
2 18 5 18 30 21 50
2 19 1 8 0 9 40
2 19 2 10 10 11 50
2 19 3 14 0 15 35
2 19 4 15 55 17 30
2 19 5 18 30 21 50
2 20 1 8 0 9 40
2 20 2 10 10 11 50
2 20 3 14 0 15 35
2 20 4 15 55 17 30
2 20 5 18 30 21 50
2 21 1 8 0 9 40
2 21 2 10 10 11 50
2 21 3 14 0 15 35
2 21 4 15 55 17 30
2 21 5 18 30 21 50
2 22 1 8 0 9 40
2 22 2 10 10 11 50
2 22 3 14 0 15 35
2 22 4 15 55 17 30
2 22 5 18 30 21 50
2 23 1 8 0 9 40
2 23 2 10 10 11 50
2 23 3 14 0 15 35
2 23 4 15 55 17 30
2 23 5 18 30 21 50
2 24 1 8 0 9 40
2 24 2 10 10 11 50
2 24 3 14 0 15 35
2 24 4 15 55 17 30
2 24 5 18 30 21 50
2 25 1 8 0 9 40
2 25 2 10 10 11 50
2 25 3 14 0 15 35
2 25 4 15 55 17 30
2 25 5 18 30 21 50
2 26 1 8 0 9 40
2 26 2 10 10 11 50
2 26 3 14 0 15 35
2 26 4 15 55 17 30
2 26 5 18 30 21 50
2 27 1 8 0 9 40
2 27 2 10 10 11 50
2 27 3 14 0 15 35
2 27 4 15 55 17 30
2 27 5 18 30 21 50
2 28 1 8 0 9 40
2 28 2 10 10 11 50
2 28 3 14 0 15 35
2 28 4 15 55 17 30
2 28 5 18 30 21 50
3 1 1 8 0 9 40
3 1 2 10 10 11 50
3 1 3 14 0 15 35
3 1 4 15 55 17 30
3 1 5 18 30 21 50
3 2 1 8 0 9 40
3 2 2 10 10 11 50
3 2 3 14 0 15 35
3 2 4 15 55 17 30
3 2 5 18 30 21 50
3 3 1 8 0 9 40
3 3 2 10 10 11 50
3 3 3 14 0 15 35
3 3 4 15 55 17 30
3 3 5 18 30 21 50
3 4 1 8 0 9 40
3 4 2 10 10 11 50
3 4 3 14 0 15 35
3 4 4 15 55 17 30
3 4 5 18 30 21 50
3 5 1 8 0 9 40
3 5 2 10 10 11 50
3 5 3 14 0 15 35
3 5 4 15 55 17 30
3 5 5 18 30 21 50
3 6 1 8 0 9 40
3 6 2 10 10 11 50
3 6 3 14 0 15 35
3 6 4 15 55 17 30
3 6 5 18 30 21 50
3 7 1 8 0 9 40
3 7 2 10 10 11 50
3 7 3 14 0 15 35
3 7 4 15 55 17 30
3 7 5 18 30 21 50
3 8 1 8 0 9 40
3 8 2 10 10 11 50
3 8 3 14 0 15 35
3 8 4 15 55 17 30
3 8 5 18 30 21 50
3 9 1 8 0 9 40
3 9 2 10 10 11 50
3 9 3 14 0 15 35
3 9 4 15 55 17 30
3 9 5 18 30 21 50
3 10 1 8 0 9 40
3 10 2 10 10 11 50
3 10 3 14 0 15 35
3 10 4 15 55 17 30
3 10 5 18 30 21 50
3 11 1 8 0 9 40
3 11 2 10 10 11 50
3 11 3 14 0 15 35
3 11 4 15 55 17 30
3 11 5 18 30 21 50
3 12 1 8 0 9 40
3 12 2 10 10 11 50
3 12 3 14 0 15 35
3 12 4 15 55 17 30
3 12 5 18 30 21 50
3 13 1 8 0 9 40
3 13 2 10 10 11 50
3 13 3 14 0 15 35
3 13 4 15 55 17 30
3 13 5 18 30 21 50
3 14 1 8 0 9 40
3 14 2 10 10 11 50
3 14 3 14 0 15 35
3 14 4 15 55 17 30
3 14 5 18 30 21 50
3 15 1 8 0 9 40
3 15 2 10 10 11 50
3 15 3 14 0 15 35
3 15 4 15 55 17 30
3 15 5 18 30 21 50
3 16 1 8 0 9 40
3 16 2 10 10 11 50
3 16 3 14 0 15 35
3 16 4 15 55 17 30
3 16 5 18 30 21 50
3 17 1 8 0 9 40
3 17 2 10 10 11 50
3 17 3 14 0 15 35
3 17 4 15 55 17 30
3 17 5 18 30 21 50
3 18 1 8 0 9 40
3 18 2 10 10 11 50
3 18 3 14 0 15 35
3 18 4 15 55 17 30
3 18 5 18 30 21 50
3 19 1 8 0 9 40
3 19 2 10 10 11 50
3 19 3 14 0 15 35
3 19 4 15 55 17 30
3 19 5 18 30 21 50
3 20 1 8 0 9 40
3 20 2 10 10 11 50
3 20 3 14 0 15 35
3 20 4 15 55 17 30
3 20 5 18 30 21 50
3 21 1 8 0 9 40
3 21 2 10 10 11 50
3 21 3 14 0 15 35
3 21 4 15 55 17 30
3 21 5 18 30 21 50
3 22 1 8 0 9 40
3 22 2 10 10 11 50
3 22 3 14 0 15 35
3 22 4 15 55 17 30
3 22 5 18 30 21 50
3 23 1 8 0 9 40
3 23 2 10 10 11 50
3 23 3 14 0 15 35
3 23 4 15 55 17 30
3 23 5 18 30 21 50
3 24 1 8 0 9 40
3 24 2 10 10 11 50
3 24 3 14 0 15 35
3 24 4 15 55 17 30
3 24 5 18 30 21 50
3 25 1 8 0 9 40
3 25 2 10 10 11 50
3 25 3 14 0 15 35
3 25 4 15 55 17 30
3 25 5 18 30 21 50
3 26 1 8 0 9 40
3 26 2 10 10 11 50
3 26 3 14 0 15 35
3 26 4 15 55 17 30
3 26 5 18 30 21 50
3 27 1 8 0 9 40
3 27 2 10 10 11 50
3 27 3 14 0 15 35
3 27 4 15 55 17 30
3 27 5 18 30 21 50
3 28 1 8 0 9 40
3 28 2 10 10 11 50
3 28 3 14 0 15 35
3 28 4 15 55 17 30
3 28 5 18 30 21 50
3 29 1 8 0 9 40
3 29 2 10 10 11 50
3 29 3 14 0 15 35
3 29 4 15 55 17 30
3 29 5 18 30 21 50
3 30 1 8 0 9 40
3 30 2 10 10 11 50
3 30 3 14 0 15 35
3 30 4 15 55 17 30
3 30 5 18 30 21 50
3 31 1 8 0 9 40
3 31 2 10 10 11 50
3 31 3 14 0 15 35
3 31 4 15 55 17 30
3 31 5 18 30 21 50
4 1 1 8 0 9 40
4 1 2 10 10 11 50
4 1 3 14 0 15 35
4 1 4 15 55 17 30
4 1 5 18 30 21 50
4 2 1 8 0 9 40
4 2 2 10 10 11 50
4 2 3 14 0 15 35
4 2 4 15 55 17 30
4 2 5 18 30 21 50
4 3 1 8 0 9 40
4 3 2 10 10 11 50
4 3 3 14 0 15 35
4 3 4 15 55 17 30
4 3 5 18 30 21 50
4 4 1 8 0 9 40
4 4 2 10 10 11 50
4 4 3 14 0 15 35
4 4 4 15 55 17 30
4 4 5 18 30 21 50
4 5 1 8 0 9 40
4 5 2 10 10 11 50
4 5 3 14 0 15 35
4 5 4 15 55 17 30
4 5 5 18 30 21 50
4 6 1 8 0 9 40
4 6 2 10 10 11 50
4 6 3 14 0 15 35
4 6 4 15 55 17 30
4 6 5 18 30 21 50
4 7 1 8 0 9 40
4 7 2 10 10 11 50
4 7 3 14 0 15 35
4 7 4 15 55 17 30
4 7 5 18 30 21 50
4 8 1 8 0 9 40
4 8 2 10 10 11 50
4 8 3 14 0 15 35
4 8 4 15 55 17 30
4 8 5 18 30 21 50
4 9 1 8 0 9 40
4 9 2 10 10 11 50
4 9 3 14 0 15 35
4 9 4 15 55 17 30
4 9 5 18 30 21 50
4 10 1 8 0 9 40
4 10 2 10 10 11 50
4 10 3 14 0 15 35
4 10 4 15 55 17 30
4 10 5 18 30 21 50
4 11 1 8 0 9 40
4 11 2 10 10 11 50
4 11 3 14 0 15 35
4 11 4 15 55 17 30
4 11 5 18 30 21 50
4 12 1 8 0 9 40
4 12 2 10 10 11 50
4 12 3 14 0 15 35
4 12 4 15 55 17 30
4 12 5 18 30 21 50
4 13 1 8 0 9 40
4 13 2 10 10 11 50
4 13 3 14 0 15 35
4 13 4 15 55 17 30
4 13 5 18 30 21 50
4 14 1 8 0 9 40
4 14 2 10 10 11 50
4 14 3 14 0 15 35
4 14 4 15 55 17 30
4 14 5 18 30 21 50
4 15 1 8 0 9 40
4 15 2 10 10 11 50
4 15 3 14 0 15 35
4 15 4 15 55 17 30
4 15 5 18 30 21 50
4 16 1 8 0 9 40
4 16 2 10 10 11 50
4 16 3 14 0 15 35
4 16 4 15 55 17 30
4 16 5 18 30 21 50
4 17 1 8 0 9 40
4 17 2 10 10 11 50
4 17 3 14 0 15 35
4 17 4 15 55 17 30
4 17 5 18 30 21 50
4 18 1 8 0 9 40
4 18 2 10 10 11 50
4 18 3 14 0 15 35
4 18 4 15 55 17 30
4 18 5 18 30 21 50
4 19 1 8 0 9 40
4 19 2 10 10 11 50
4 19 3 14 0 15 35
4 19 4 15 55 17 30
4 19 5 18 30 21 50
4 20 1 8 0 9 40
4 20 2 10 10 11 50
4 20 3 14 0 15 35
4 20 4 15 55 17 30
4 20 5 18 30 21 50
4 21 1 8 0 9 40
4 21 2 10 10 11 50
4 21 3 14 0 15 35
4 21 4 15 55 17 30
4 21 5 18 30 21 50
4 22 1 8 0 9 40
4 22 2 10 10 11 50
4 22 3 14 0 15 35
4 22 4 15 55 17 30
4 22 5 18 30 21 50
4 23 1 8 0 9 40
4 23 2 10 10 11 50
4 23 3 14 0 15 35
4 23 4 15 55 17 30
4 23 5 18 30 21 50
4 24 1 8 0 9 40
4 24 2 10 10 11 50
4 24 3 14 0 15 35
4 24 4 15 55 17 30
4 24 5 18 30 21 50
4 25 1 8 0 9 40
4 25 2 10 10 11 50
4 25 3 14 0 15 35
4 25 4 15 55 17 30
4 25 5 18 30 21 50
4 26 1 8 0 9 40
4 26 2 10 10 11 50
4 26 3 14 0 15 35
4 26 4 15 55 17 30
4 26 5 18 30 21 50
4 27 1 8 0 9 40
4 27 2 10 10 11 50
4 27 3 14 0 15 35
4 27 4 15 55 17 30
4 27 5 18 30 21 50
4 28 1 8 0 9 40
4 28 2 10 10 11 50
4 28 3 14 0 15 35
4 28 4 15 55 17 30
4 28 5 18 30 21 50
4 29 1 8 0 9 40
4 29 2 10 10 11 50
4 29 3 14 0 15 35
4 29 4 15 55 17 30
4 29 5 18 30 21 50
4 30 1 8 0 9 40
4 30 2 10 10 11 50
4 30 3 14 0 15 35
4 30 4 15 55 17 30
4 30 5 18 30 21 50
5 1 1 8 0 9 40
5 1 2 10 10 11 50
5 1 3 14 30 16 5
5 1 4 16 25 18 0
5 1 5 19 0 22 20
5 2 1 8 0 9 40
5 2 2 10 10 11 50
5 2 3 14 30 16 5
5 2 4 16 25 18 0
5 2 5 19 0 22 20
5 3 1 8 0 9 40
5 3 2 10 10 11 50
5 3 3 14 30 16 5
5 3 4 16 25 18 0
5 3 5 19 0 22 20
5 4 1 8 0 9 40
5 4 2 10 10 11 50
5 4 3 14 30 16 5
5 4 4 16 25 18 0
5 4 5 19 0 22 20
5 5 1 8 0 9 40
5 5 2 10 10 11 50
5 5 3 14 30 16 5
5 5 4 16 25 18 0
5 5 5 19 0 22 20
5 6 1 8 0 9 40
5 6 2 10 10 11 50
5 6 3 14 30 16 5
5 6 4 16 25 18 0
5 6 5 19 0 22 20
5 7 1 8 0 9 40
5 7 2 10 10 11 50
5 7 3 14 30 16 5
5 7 4 16 25 18 0
5 7 5 19 0 22 20
5 8 1 8 0 9 40
5 8 2 10 10 11 50
5 8 3 14 30 16 5
5 8 4 16 25 18 0
5 8 5 19 0 22 20
5 9 1 8 0 9 40
5 9 2 10 10 11 50
5 9 3 14 30 16 5
5 9 4 16 25 18 0
5 9 5 19 0 22 20
5 10 1 8 0 9 40
5 10 2 10 10 11 50
5 10 3 14 30 16 5
5 10 4 16 25 18 0
5 10 5 19 0 22 20
5 11 1 8 0 9 40
5 11 2 10 10 11 50
5 11 3 14 30 16 5
5 11 4 16 25 18 0
5 11 5 19 0 22 20
5 12 1 8 0 9 40
5 12 2 10 10 11 50
5 12 3 14 30 16 5
5 12 4 16 25 18 0
5 12 5 19 0 22 20
5 13 1 8 0 9 40
5 13 2 10 10 11 50
5 13 3 14 30 16 5
5 13 4 16 25 18 0
5 13 5 19 0 22 20
5 14 1 8 0 9 40
5 14 2 10 10 11 50
5 14 3 14 30 16 5
5 14 4 16 25 18 0
5 14 5 19 0 22 20
5 15 1 8 0 9 40
5 15 2 10 10 11 50
5 15 3 14 30 16 5
5 15 4 16 25 18 0
5 15 5 19 0 22 20
5 16 1 8 0 9 40
5 16 2 10 10 11 50
5 16 3 14 30 16 5
5 16 4 16 25 18 0
5 16 5 19 0 22 20
5 17 1 8 0 9 40
5 17 2 10 10 11 50
5 17 3 14 30 16 5
5 17 4 16 25 18 0
5 17 5 19 0 22 20
5 18 1 8 0 9 40
5 18 2 10 10 11 50
5 18 3 14 30 16 5
5 18 4 16 25 18 0
5 18 5 19 0 22 20
5 19 1 8 0 9 40
5 19 2 10 10 11 50
5 19 3 14 30 16 5
5 19 4 16 25 18 0
5 19 5 19 0 22 20
5 20 1 8 0 9 40
5 20 2 10 10 11 50
5 20 3 14 30 16 5
5 20 4 16 25 18 0
5 20 5 19 0 22 20
5 21 1 8 0 9 40
5 21 2 10 10 11 50
5 21 3 14 30 16 5
5 21 4 16 25 18 0
5 21 5 19 0 22 20
5 22 1 8 0 9 40
5 22 2 10 10 11 50
5 22 3 14 30 16 5
5 22 4 16 25 18 0
5 22 5 19 0 22 20
5 23 1 8 0 9 40
5 23 2 10 10 11 50
5 23 3 14 30 16 5
5 23 4 16 25 18 0
5 23 5 19 0 22 20
5 24 1 8 0 9 40
5 24 2 10 10 11 50
5 24 3 14 30 16 5
5 24 4 16 25 18 0
5 24 5 19 0 22 20
5 25 1 8 0 9 40
5 25 2 10 10 11 50
5 25 3 14 30 16 5
5 25 4 16 25 18 0
5 25 5 19 0 22 20
5 26 1 8 0 9 40
5 26 2 10 10 11 50
5 26 3 14 30 16 5
5 26 4 16 25 18 0
5 26 5 19 0 22 20
5 27 1 8 0 9 40
5 27 2 10 10 11 50
5 27 3 14 30 16 5
5 27 4 16 25 18 0
5 27 5 19 0 22 20
5 28 1 8 0 9 40
5 28 2 10 10 11 50
5 28 3 14 30 16 5
5 28 4 16 25 18 0
5 28 5 19 0 22 20
5 29 1 8 0 9 40
5 29 2 10 10 11 50
5 29 3 14 30 16 5
5 29 4 16 25 18 0
5 29 5 19 0 22 20
5 30 1 8 0 9 40
5 30 2 10 10 11 50
5 30 3 14 30 16 5
5 30 4 16 25 18 0
5 30 5 19 0 22 20
5 31 1 8 0 9 40
5 31 2 10 10 11 50
5 31 3 14 30 16 5
5 31 4 16 25 18 0
5 31 5 19 0 22 20
6 1 1 8 0 9 40
6 1 2 10 10 11 50
6 1 3 14 30 16 5
6 1 4 16 25 18 0
6 1 5 19 0 22 20
6 2 1 8 0 9 40
6 2 2 10 10 11 50
6 2 3 14 30 16 5
6 2 4 16 25 18 0
6 2 5 19 0 22 20
6 3 1 8 0 9 40
6 3 2 10 10 11 50
6 3 3 14 30 16 5
6 3 4 16 25 18 0
6 3 5 19 0 22 20
6 4 1 8 0 9 40
6 4 2 10 10 11 50
6 4 3 14 30 16 5
6 4 4 16 25 18 0
6 4 5 19 0 22 20
6 5 1 8 0 9 40
6 5 2 10 10 11 50
6 5 3 14 30 16 5
6 5 4 16 25 18 0
6 5 5 19 0 22 20
6 6 1 8 0 9 40
6 6 2 10 10 11 50
6 6 3 14 30 16 5
6 6 4 16 25 18 0
6 6 5 19 0 22 20
6 7 1 8 0 9 40
6 7 2 10 10 11 50
6 7 3 14 30 16 5
6 7 4 16 25 18 0
6 7 5 19 0 22 20
6 8 1 8 0 9 40
6 8 2 10 10 11 50
6 8 3 14 30 16 5
6 8 4 16 25 18 0
6 8 5 19 0 22 20
6 9 1 8 0 9 40
6 9 2 10 10 11 50
6 9 3 14 30 16 5
6 9 4 16 25 18 0
6 9 5 19 0 22 20
6 10 1 8 0 9 40
6 10 2 10 10 11 50
6 10 3 14 30 16 5
6 10 4 16 25 18 0
6 10 5 19 0 22 20
6 11 1 8 0 9 40
6 11 2 10 10 11 50
6 11 3 14 30 16 5
6 11 4 16 25 18 0
6 11 5 19 0 22 20
6 12 1 8 0 9 40
6 12 2 10 10 11 50
6 12 3 14 30 16 5
6 12 4 16 25 18 0
6 12 5 19 0 22 20
6 13 1 8 0 9 40
6 13 2 10 10 11 50
6 13 3 14 30 16 5
6 13 4 16 25 18 0
6 13 5 19 0 22 20
6 14 1 8 0 9 40
6 14 2 10 10 11 50
6 14 3 14 30 16 5
6 14 4 16 25 18 0
6 14 5 19 0 22 20
6 15 1 8 0 9 40
6 15 2 10 10 11 50
6 15 3 14 30 16 5
6 15 4 16 25 18 0
6 15 5 19 0 22 20
6 16 1 8 0 9 40
6 16 2 10 10 11 50
6 16 3 14 30 16 5
6 16 4 16 25 18 0
6 16 5 19 0 22 20
6 17 1 8 0 9 40
6 17 2 10 10 11 50
6 17 3 14 30 16 5
6 17 4 16 25 18 0
6 17 5 19 0 22 20
6 18 1 8 0 9 40
6 18 2 10 10 11 50
6 18 3 14 30 16 5
6 18 4 16 25 18 0
6 18 5 19 0 22 20
6 19 1 8 0 9 40
6 19 2 10 10 11 50
6 19 3 14 30 16 5
6 19 4 16 25 18 0
6 19 5 19 0 22 20
6 20 1 8 0 9 40
6 20 2 10 10 11 50
6 20 3 14 30 16 5
6 20 4 16 25 18 0
6 20 5 19 0 22 20
6 21 1 8 0 9 40
6 21 2 10 10 11 50
6 21 3 14 30 16 5
6 21 4 16 25 18 0
6 21 5 19 0 22 20
6 22 1 8 0 9 40
6 22 2 10 10 11 50
6 22 3 14 30 16 5
6 22 4 16 25 18 0
6 22 5 19 0 22 20
6 23 1 8 0 9 40
6 23 2 10 10 11 50
6 23 3 14 30 16 5
6 23 4 16 25 18 0
6 23 5 19 0 22 20
6 24 1 8 0 9 40
6 24 2 10 10 11 50
6 24 3 14 30 16 5
6 24 4 16 25 18 0
6 24 5 19 0 22 20
6 25 1 8 0 9 40
6 25 2 10 10 11 50
6 25 3 14 30 16 5
6 25 4 16 25 18 0
6 25 5 19 0 22 20
6 26 1 8 0 9 40
6 26 2 10 10 11 50
6 26 3 14 30 16 5
6 26 4 16 25 18 0
6 26 5 19 0 22 20
6 27 1 8 0 9 40
6 27 2 10 10 11 50
6 27 3 14 30 16 5
6 27 4 16 25 18 0
6 27 5 19 0 22 20
6 28 1 8 0 9 40
6 28 2 10 10 11 50
6 28 3 14 30 16 5
6 28 4 16 25 18 0
6 28 5 19 0 22 20
6 29 1 8 0 9 40
6 29 2 10 10 11 50
6 29 3 14 30 16 5
6 29 4 16 25 18 0
6 29 5 19 0 22 20
6 30 1 8 0 9 40
6 30 2 10 10 11 50
6 30 3 14 30 16 5
6 30 4 16 25 18 0
6 30 5 19 0 22 20
7 1 1 8 0 9 40
7 1 2 10 10 11 50
7 1 3 14 30 16 5
7 1 4 16 25 18 0
7 1 5 19 0 22 20
7 2 1 8 0 9 40
7 2 2 10 10 11 50
7 2 3 14 30 16 5
7 2 4 16 25 18 0
7 2 5 19 0 22 20
7 3 1 8 0 9 40
7 3 2 10 10 11 50
7 3 3 14 30 16 5
7 3 4 16 25 18 0
7 3 5 19 0 22 20
7 4 1 8 0 9 40
7 4 2 10 10 11 50
7 4 3 14 30 16 5
7 4 4 16 25 18 0
7 4 5 19 0 22 20
7 5 1 8 0 9 40
7 5 2 10 10 11 50
7 5 3 14 30 16 5
7 5 4 16 25 18 0
7 5 5 19 0 22 20
7 6 1 8 0 9 40
7 6 2 10 10 11 50
7 6 3 14 30 16 5
7 6 4 16 25 18 0
7 6 5 19 0 22 20
7 7 1 8 0 9 40
7 7 2 10 10 11 50
7 7 3 14 30 16 5
7 7 4 16 25 18 0
7 7 5 19 0 22 20
7 8 1 8 0 9 40
7 8 2 10 10 11 50
7 8 3 14 30 16 5
7 8 4 16 25 18 0
7 8 5 19 0 22 20
7 9 1 8 0 9 40
7 9 2 10 10 11 50
7 9 3 14 30 16 5
7 9 4 16 25 18 0
7 9 5 19 0 22 20
7 10 1 8 0 9 40
7 10 2 10 10 11 50
7 10 3 14 30 16 5
7 10 4 16 25 18 0
7 10 5 19 0 22 20
7 11 1 8 0 9 40
7 11 2 10 10 11 50
7 11 3 14 30 16 5
7 11 4 16 25 18 0
7 11 5 19 0 22 20
7 12 1 8 0 9 40
7 12 2 10 10 11 50
7 12 3 14 30 16 5
7 12 4 16 25 18 0
7 12 5 19 0 22 20
7 13 1 8 0 9 40
7 13 2 10 10 11 50
7 13 3 14 30 16 5
7 13 4 16 25 18 0
7 13 5 19 0 22 20
7 14 1 8 0 9 40
7 14 2 10 10 11 50
7 14 3 14 30 16 5
7 14 4 16 25 18 0
7 14 5 19 0 22 20
7 15 1 8 0 9 40
7 15 2 10 10 11 50
7 15 3 14 30 16 5
7 15 4 16 25 18 0
7 15 5 19 0 22 20
7 16 1 8 0 9 40
7 16 2 10 10 11 50
7 16 3 14 30 16 5
7 16 4 16 25 18 0
7 16 5 19 0 22 20
7 17 1 8 0 9 40
7 17 2 10 10 11 50
7 17 3 14 30 16 5
7 17 4 16 25 18 0
7 17 5 19 0 22 20
7 18 1 8 0 9 40
7 18 2 10 10 11 50
7 18 3 14 30 16 5
7 18 4 16 25 18 0
7 18 5 19 0 22 20
7 19 1 8 0 9 40
7 19 2 10 10 11 50
7 19 3 14 30 16 5
7 19 4 16 25 18 0
7 19 5 19 0 22 20
7 20 1 8 0 9 40
7 20 2 10 10 11 50
7 20 3 14 30 16 5
7 20 4 16 25 18 0
7 20 5 19 0 22 20
7 21 1 8 0 9 40
7 21 2 10 10 11 50
7 21 3 14 30 16 5
7 21 4 16 25 18 0
7 21 5 19 0 22 20
7 22 1 8 0 9 40
7 22 2 10 10 11 50
7 22 3 14 30 16 5
7 22 4 16 25 18 0
7 22 5 19 0 22 20
7 23 1 8 0 9 40
7 23 2 10 10 11 50
7 23 3 14 30 16 5
7 23 4 16 25 18 0
7 23 5 19 0 22 20
7 24 1 8 0 9 40
7 24 2 10 10 11 50
7 24 3 14 30 16 5
7 24 4 16 25 18 0
7 24 5 19 0 22 20
7 25 1 8 0 9 40
7 25 2 10 10 11 50
7 25 3 14 30 16 5
7 25 4 16 25 18 0
7 25 5 19 0 22 20
7 26 1 8 0 9 40
7 26 2 10 10 11 50
7 26 3 14 30 16 5
7 26 4 16 25 18 0
7 26 5 19 0 22 20
7 27 1 8 0 9 40
7 27 2 10 10 11 50
7 27 3 14 30 16 5
7 27 4 16 25 18 0
7 27 5 19 0 22 20
7 28 1 8 0 9 40
7 28 2 10 10 11 50
7 28 3 14 30 16 5
7 28 4 16 25 18 0
7 28 5 19 0 22 20
7 29 1 8 0 9 40
7 29 2 10 10 11 50
7 29 3 14 30 16 5
7 29 4 16 25 18 0
7 29 5 19 0 22 20
7 30 1 8 0 9 40
7 30 2 10 10 11 50
7 30 3 14 30 16 5
7 30 4 16 25 18 0
7 30 5 19 0 22 20
7 31 1 8 0 9 40
7 31 2 10 10 11 50
7 31 3 14 30 16 5
7 31 4 16 25 18 0
7 31 5 19 0 22 20
8 1 1 8 0 9 40
8 1 2 10 10 11 50
8 1 3 14 30 16 5
8 1 4 16 25 18 0
8 1 5 19 0 22 20
8 2 1 8 0 9 40
8 2 2 10 10 11 50
8 2 3 14 30 16 5
8 2 4 16 25 18 0
8 2 5 19 0 22 20
8 3 1 8 0 9 40
8 3 2 10 10 11 50
8 3 3 14 30 16 5
8 3 4 16 25 18 0
8 3 5 19 0 22 20
8 4 1 8 0 9 40
8 4 2 10 10 11 50
8 4 3 14 30 16 5
8 4 4 16 25 18 0
8 4 5 19 0 22 20
8 5 1 8 0 9 40
8 5 2 10 10 11 50
8 5 3 14 30 16 5
8 5 4 16 25 18 0
8 5 5 19 0 22 20
8 6 1 8 0 9 40
8 6 2 10 10 11 50
8 6 3 14 30 16 5
8 6 4 16 25 18 0
8 6 5 19 0 22 20
8 7 1 8 0 9 40
8 7 2 10 10 11 50
8 7 3 14 30 16 5
8 7 4 16 25 18 0
8 7 5 19 0 22 20
8 8 1 8 0 9 40
8 8 2 10 10 11 50
8 8 3 14 30 16 5
8 8 4 16 25 18 0
8 8 5 19 0 22 20
8 9 1 8 0 9 40
8 9 2 10 10 11 50
8 9 3 14 30 16 5
8 9 4 16 25 18 0
8 9 5 19 0 22 20
8 10 1 8 0 9 40
8 10 2 10 10 11 50
8 10 3 14 30 16 5
8 10 4 16 25 18 0
8 10 5 19 0 22 20
8 11 1 8 0 9 40
8 11 2 10 10 11 50
8 11 3 14 30 16 5
8 11 4 16 25 18 0
8 11 5 19 0 22 20
8 12 1 8 0 9 40
8 12 2 10 10 11 50
8 12 3 14 30 16 5
8 12 4 16 25 18 0
8 12 5 19 0 22 20
8 13 1 8 0 9 40
8 13 2 10 10 11 50
8 13 3 14 30 16 5
8 13 4 16 25 18 0
8 13 5 19 0 22 20
8 14 1 8 0 9 40
8 14 2 10 10 11 50
8 14 3 14 30 16 5
8 14 4 16 25 18 0
8 14 5 19 0 22 20
8 15 1 8 0 9 40
8 15 2 10 10 11 50
8 15 3 14 30 16 5
8 15 4 16 25 18 0
8 15 5 19 0 22 20
8 16 1 8 0 9 40
8 16 2 10 10 11 50
8 16 3 14 30 16 5
8 16 4 16 25 18 0
8 16 5 19 0 22 20
8 17 1 8 0 9 40
8 17 2 10 10 11 50
8 17 3 14 30 16 5
8 17 4 16 25 18 0
8 17 5 19 0 22 20
8 18 1 8 0 9 40
8 18 2 10 10 11 50
8 18 3 14 30 16 5
8 18 4 16 25 18 0
8 18 5 19 0 22 20
8 19 1 8 0 9 40
8 19 2 10 10 11 50
8 19 3 14 30 16 5
8 19 4 16 25 18 0
8 19 5 19 0 22 20
8 20 1 8 0 9 40
8 20 2 10 10 11 50
8 20 3 14 30 16 5
8 20 4 16 25 18 0
8 20 5 19 0 22 20
8 21 1 8 0 9 40
8 21 2 10 10 11 50
8 21 3 14 30 16 5
8 21 4 16 25 18 0
8 21 5 19 0 22 20
8 22 1 8 0 9 40
8 22 2 10 10 11 50
8 22 3 14 30 16 5
8 22 4 16 25 18 0
8 22 5 19 0 22 20
8 23 1 8 0 9 40
8 23 2 10 10 11 50
8 23 3 14 30 16 5
8 23 4 16 25 18 0
8 23 5 19 0 22 20
8 24 1 8 0 9 40
8 24 2 10 10 11 50
8 24 3 14 30 16 5
8 24 4 16 25 18 0
8 24 5 19 0 22 20
8 25 1 8 0 9 40
8 25 2 10 10 11 50
8 25 3 14 30 16 5
8 25 4 16 25 18 0
8 25 5 19 0 22 20
8 26 1 8 0 9 40
8 26 2 10 10 11 50
8 26 3 14 30 16 5
8 26 4 16 25 18 0
8 26 5 19 0 22 20
8 27 1 8 0 9 40
8 27 2 10 10 11 50
8 27 3 14 30 16 5
8 27 4 16 25 18 0
8 27 5 19 0 22 20
8 28 1 8 0 9 40
8 28 2 10 10 11 50
8 28 3 14 30 16 5
8 28 4 16 25 18 0
8 28 5 19 0 22 20
8 29 1 8 0 9 40
8 29 2 10 10 11 50
8 29 3 14 30 16 5
8 29 4 16 25 18 0
8 29 5 19 0 22 20
8 30 1 8 0 9 40
8 30 2 10 10 11 50
8 30 3 14 30 16 5
8 30 4 16 25 18 0
8 30 5 19 0 22 20
8 31 1 8 0 9 40
8 31 2 10 10 11 50
8 31 3 14 30 16 5
8 31 4 16 25 18 0
8 31 5 19 0 22 20
9 1 1 8 0 9 40
9 1 2 10 10 11 50
9 1 3 14 30 16 5
9 1 4 16 25 18 0
9 1 5 19 0 22 20
9 2 1 8 0 9 40
9 2 2 10 10 11 50
9 2 3 14 30 16 5
9 2 4 16 25 18 0
9 2 5 19 0 22 20
9 3 1 8 0 9 40
9 3 2 10 10 11 50
9 3 3 14 30 16 5
9 3 4 16 25 18 0
9 3 5 19 0 22 20
9 4 1 8 0 9 40
9 4 2 10 10 11 50
9 4 3 14 30 16 5
9 4 4 16 25 18 0
9 4 5 19 0 22 20
9 5 1 8 0 9 40
9 5 2 10 10 11 50
9 5 3 14 30 16 5
9 5 4 16 25 18 0
9 5 5 19 0 22 20
9 6 1 8 0 9 40
9 6 2 10 10 11 50
9 6 3 14 30 16 5
9 6 4 16 25 18 0
9 6 5 19 0 22 20
9 7 1 8 0 9 40
9 7 2 10 10 11 50
9 7 3 14 30 16 5
9 7 4 16 25 18 0
9 7 5 19 0 22 20
9 8 1 8 0 9 40
9 8 2 10 10 11 50
9 8 3 14 30 16 5
9 8 4 16 25 18 0
9 8 5 19 0 22 20
9 9 1 8 0 9 40
9 9 2 10 10 11 50
9 9 3 14 30 16 5
9 9 4 16 25 18 0
9 9 5 19 0 22 20
9 10 1 8 0 9 40
9 10 2 10 10 11 50
9 10 3 14 30 16 5
9 10 4 16 25 18 0
9 10 5 19 0 22 20
9 11 1 8 0 9 40
9 11 2 10 10 11 50
9 11 3 14 30 16 5
9 11 4 16 25 18 0
9 11 5 19 0 22 20
9 12 1 8 0 9 40
9 12 2 10 10 11 50
9 12 3 14 30 16 5
9 12 4 16 25 18 0
9 12 5 19 0 22 20
9 13 1 8 0 9 40
9 13 2 10 10 11 50
9 13 3 14 30 16 5
9 13 4 16 25 18 0
9 13 5 19 0 22 20
9 14 1 8 0 9 40
9 14 2 10 10 11 50
9 14 3 14 30 16 5
9 14 4 16 25 18 0
9 14 5 19 0 22 20
9 15 1 8 0 9 40
9 15 2 10 10 11 50
9 15 3 14 30 16 5
9 15 4 16 25 18 0
9 15 5 19 0 22 20
9 16 1 8 0 9 40
9 16 2 10 10 11 50
9 16 3 14 30 16 5
9 16 4 16 25 18 0
9 16 5 19 0 22 20
9 17 1 8 0 9 40
9 17 2 10 10 11 50
9 17 3 14 30 16 5
9 17 4 16 25 18 0
9 17 5 19 0 22 20
9 18 1 8 0 9 40
9 18 2 10 10 11 50
9 18 3 14 30 16 5
9 18 4 16 25 18 0
9 18 5 19 0 22 20
9 19 1 8 0 9 40
9 19 2 10 10 11 50
9 19 3 14 30 16 5
9 19 4 16 25 18 0
9 19 5 19 0 22 20
9 20 1 8 0 9 40
9 20 2 10 10 11 50
9 20 3 14 30 16 5
9 20 4 16 25 18 0
9 20 5 19 0 22 20
9 21 1 8 0 9 40
9 21 2 10 10 11 50
9 21 3 14 30 16 5
9 21 4 16 25 18 0
9 21 5 19 0 22 20
9 22 1 8 0 9 40
9 22 2 10 10 11 50
9 22 3 14 30 16 5
9 22 4 16 25 18 0
9 22 5 19 0 22 20
9 23 1 8 0 9 40
9 23 2 10 10 11 50
9 23 3 14 30 16 5
9 23 4 16 25 18 0
9 23 5 19 0 22 20
9 24 1 8 0 9 40
9 24 2 10 10 11 50
9 24 3 14 30 16 5
9 24 4 16 25 18 0
9 24 5 19 0 22 20
9 25 1 8 0 9 40
9 25 2 10 10 11 50
9 25 3 14 30 16 5
9 25 4 16 25 18 0
9 25 5 19 0 22 20
9 26 1 8 0 9 40
9 26 2 10 10 11 50
9 26 3 14 30 16 5
9 26 4 16 25 18 0
9 26 5 19 0 22 20
9 27 1 8 0 9 40
9 27 2 10 10 11 50
9 27 3 14 30 16 5
9 27 4 16 25 18 0
9 27 5 19 0 22 20
9 28 1 8 0 9 40
9 28 2 10 10 11 50
9 28 3 14 30 16 5
9 28 4 16 25 18 0
9 28 5 19 0 22 20
9 29 1 8 0 9 40
9 29 2 10 10 11 50
9 29 3 14 30 16 5
9 29 4 16 25 18 0
9 29 5 19 0 22 20
9 30 1 8 0 9 40
9 30 2 10 10 11 50
9 30 3 14 30 16 5
9 30 4 16 25 18 0
9 30 5 19 0 22 20
